140308
30,29,55,5,52,65,31,98,13,88,69,46,77,6,40,56,20,16,64,90,17,21,86,25,62,22,2,82,33,53,84,39,36,73,48,85,11,41,67,54,71,95,104,38,105,101,3,60,96,78,94,70,37,49,18,7,32,63,75,35,51,72,45,100,47,61,103,4,15,91,79,43,24,102,74,76,58,1,87,28,27,44,66,59,10,93,89,80,57,83,34,9,26,14,50,68,99,19,81,42,106,97,8,92,23,12